c User generated cnf file
p cnf 15 71
8 8 -10 0 
14 -6 14 0 
13 -11 8 0 
1 9 -5 0 
15 13 -4 0 
11 13 -11 0 
13 11 -4 0 
-11 3 14 0 
-14 2 5 0 
-13 7 9 0 
-7 15 14 0 
6 -9 9 0 
-7 3 14 0 
-10 10 14 0 
6 1 -15 0 
14 -10 6 0 
4 -10 5 0 
7 6 -10 0 
7 3 -6 0 
13 8 -13 0 
8 -11 15 0 
11 -13 10 0 
3 -7 14 0 
-10 10 14 0 
-7 1 12 0 
14 9 -15 0 
-5 12 15 0 
4 12 -3 0 
3 12 -3 0 
-1 14 1 0 
-14 5 2 0 
-1 14 2 0 
7 -12 5 0 
5 13 -9 0 
9 11 -12 0 
6 -12 14 0 
5 -9 5 0 
-4 4 1 0 
-4 2 10 0 
9 -4 11 0 
2 13 -12 0 
9 13 -5 0 
8 10 -4 0 
-1 13 2 0 
-7 14 12 0 
3 9 -12 0 
2 6 -11 0 
-11 14 6 0 
2 -12 4 0 
3 -14 2 0 
4 2 -4 0 
10 -13 5 0 
-2 13 13 0 
-6 5 9 0 
15 8 -14 0 
7 -14 2 0 
-6 4 11 0 
-13 14 14 0 
11 -1 9 0 
9 -15 9 0 
2 -4 10 0 
-12 8 12 0 
12 -10 9 0 
12 -7 3 0 
8 10 -7 0 
9 14 -2 0 
7 4 -2 0 
7 -4 6 0 
-13 13 2 0 
1 -7 6 0 
3 -12 14 0 
